NAME : a280.tour
TYPE : TOUR
DIMENSION : 280
OBJECTIVE : 3157.000000
TIME : 0.002538
TOUR_SECTION
1
280
2
3
279
278
4
277
276
275
274
273
272
271
16
17
18
19
20
21
128
127
126
125
30
31
32
29
28
27
26
22
25
23
24
14
13
12
11
10
8
7
9
6
5
260
259
258
257
254
253
208
207
210
209
252
255
256
249
248
247
244
241
240
239
238
231
232
233
234
235
236
237
246
245
243
242
250
251
230
229
228
227
226
225
224
223
222
219
218
215
214
211
212
213
216
217
220
221
203
202
200
144
143
142
141
140
139
138
137
136
135
134
270
269
268
267
266
265
264
263
262
261
15
133
132
131
130
129
154
155
153
156
152
151
177
176
181
180
179
178
150
149
148
147
146
145
199
198
197
194
195
196
201
193
192
191
190
189
188
187
185
184
183
182
161
162
163
164
165
166
167
168
169
101
100
99
98
93
94
95
96
97
92
91
90
89
81
80
79
76
75
74
73
72
71
70
67
66
65
64
63
62
118
61
60
43
42
41
40
39
38
37
36
35
34
33
124
123
122
121
120
119
157
158
159
160
175
174
173
106
105
104
103
102
170
171
172
107
108
109
110
111
112
88
83
82
84
85
86
116
115
114
113
87
117
59
44
45
46
47
48
49
50
51
52
53
54
55
56
57
58
68
69
77
78
186
204
205
206
-1
EOF